************************************************************************
file with basedata            : j30_23.bas
initial value random generator: 646578913
************************************************************************
projects                      :  1
jobs (incl. supersource/sink ):  32
horizon                       :  160
RESOURCES
  - renewable                 :  4   R
  - nonrenewable              :  0   N
  - doubly constrained        :  0   D
************************************************************************
PROJECT INFORMATION:
pronr.  #jobs rel.date duedate tardcost  MPM-Time
    1     30      0       42       26       42
************************************************************************
PRECEDENCE RELATIONS:
jobnr.    #modes  #successors   successors
   1        1          3           2   3   4
   2        1          3           7  19  26
   3        1          3           5   9  27
   4        1          2          10  17
   5        1          3           6   8  23
   6        1          2          18  20
   7        1          1          21
   8        1          1          12
   9        1          1          13
  10        1          3          11  14  16
  11        1          2          22  26
  12        1          1          24
  13        1          1          15
  14        1          2          21  24
  15        1          1          24
  16        1          1          30
  17        1          1          29
  18        1          2          22  28
  19        1          1          21
  20        1          2          30  31
  21        1          1          22
  22        1          2          25  29
  23        1          1          28
  24        1          1          25
  25        1          1          31
  26        1          1          31
  27        1          1          30
  28        1          1          29
  29        1          1          32
  30        1          1          32
  31        1          1          32
  32        1          0        
************************************************************************
REQUESTS/DURATIONS:
jobnr. mode duration  R 1  R 2  R 3  R 4
------------------------------------------------------------------------
  1      1     0       0    0    0    0
  2      1     8       6    0    0    0
  3      1     7      10    0    4    6
  4      1     3       8    0    0    8
  5      1     7       0   10    5    3
  6      1     3       0    9    0   10
  7      1     9       0    0    0    4
  8      1     3       0    0    0    3
  9      1     9       0    6    0    0
 10      1     4       0   10    8   10
 11      1     3       7    0    0    8
 12      1     9       0   10    9    0
 13      1     4       6    0    0    0
 14      1    10       5    9    0    5
 15      1     7       1    2    0    7
 16      1     2       0    5    0    7
 17      1     8      10    0    1    7
 18      1     6       7    0    0    0
 19      1     1       2    5   10    0
 20      1     9       0    0    0    3
 21      1     2       0    8    4    8
 22      1     6       0    8    5    8
 23      1     3       0    6    5    6
 24      1     4       0    6    0    0
 25      1    10       0    0    0    5
 26      1     7       6    0    8    0
 27      1     1       8    0    3    4
 28      1     1       7    6    0    0
 29      1     9       0    0    6    0
 30      1     4      10   10    0    4
 31      1     1       0    0    0    7
 32      1     0       0    0    0    0
************************************************************************
RESOURCEAVAILABILITIES:
  R 1  R 2  R 3  R 4
   28   28   14   27
************************************************************************
Job	#risk	Type	VL	mu	sigma	Type	VL	mu	sigma
4	2	5	0.1	6.25	0.625	7	0.1	8.75	0.875
6	1	6	0.1	7.5	0.75
13	2	3	0.2	3.75	0.75	6	0.1	7.5	0.75
17	1	5	0.2	6.25	1.25
19	1	8	0.1	10	1
20	2	3	0.2	3.75	0.75	7	0.1	8.75	0.875
25	1	2	0.2	2.5	0.5
29	1	8	0.2	10	2
30	2	2	0.05	2.5	0.125	6	0.05	7.5	0.375
